(set-logic QF_UF)
(declare-fun A0 () Bool)
(declare-fun A1 () Bool)
(declare-fun A2 () Bool)
(declare-fun A3 () Bool)
(declare-fun A4 () Bool)
(declare-fun A5 () Bool)
(declare-fun A6 () Bool)
(declare-fun A7 () Bool)
(declare-fun A8 () Bool)
(declare-fun A9 () Bool)
(declare-fun A10 () Bool)
(declare-fun A11 () Bool)
(declare-fun A12 () Bool)
(declare-fun A13 () Bool)
(declare-fun A14 () Bool)
(declare-fun A15 () Bool)
(declare-fun A16 () Bool)
(declare-fun A17 () Bool)
(declare-fun A18 () Bool)
(declare-fun A19 () Bool)
(declare-fun A20 () Bool)
(declare-fun A21 () Bool)
(declare-fun A22 () Bool)
(declare-fun A23 () Bool)
(declare-fun A24 () Bool)
(assert (let ((.def_0 (not A10))) (let ((.def_1 (or .def_0 A22))) (let ((.def_2 (not A4))) (let ((.def_3 (or .def_2 A5))) (let ((.def_4 (or .def_3 .def_1))) (let ((.def_5 (not .def_4))) (let ((.def_6 (not A6))) (let ((.def_7 (and A20 .def_6))) (let ((.def_8 (not .def_7))) (let ((.def_9 (not A0))) (let ((.def_10 (not A18))) (let ((.def_11 (= .def_10 .def_9))) (let ((.def_12 (and .def_11 .def_8))) (let ((.def_13 (and .def_12 .def_5))) (let ((.def_14 (and .def_2 A20))) (let ((.def_15 (not A13))) (let ((.def_16 (or A6 .def_15))) (let ((.def_17 (not .def_16))) (let ((.def_18 (and .def_17 .def_14))) (let ((.def_19 (not .def_18))) (let ((.def_20 (not A19))) (let ((.def_21 (and .def_20 A21))) (let ((.def_22 (not .def_21))) (let ((.def_23 (and A12 A4))) (let ((.def_24 (and .def_23 .def_22))) (let ((.def_25 (not .def_24))) (let ((.def_26 (and .def_25 .def_19))) (let ((.def_27 (or .def_26 .def_13))) (let ((.def_28 (not .def_27))) (let ((.def_29 (not A5))) (let ((.def_30 (and .def_29 A9))) (let ((.def_31 (not .def_30))) (let ((.def_32 (not A2))) (let ((.def_33 (or .def_0 .def_32))) (let ((.def_34 (not .def_33))) (let ((.def_35 (or .def_34 .def_31))) (let ((.def_36 (not .def_35))) (let ((.def_37 (and A14 A17))) (let ((.def_38 (or A10 A2))) (let ((.def_39 (and .def_38 .def_37))) (let ((.def_40 (not .def_39))) (let ((.def_41 (or .def_40 .def_36))) (let ((.def_42 (not A20))) (let ((.def_43 (not A24))) (let ((.def_44 (or .def_43 .def_42))) (let ((.def_45 (and A14 A5))) (let ((.def_46 (not .def_45))) (let ((.def_47 (or .def_46 .def_44))) (let ((.def_48 (not .def_47))) (let ((.def_49 (not A16))) (let ((.def_50 (or .def_49 A5))) (let ((.def_51 (not .def_50))) (let ((.def_52 (not A8))) (let ((.def_53 (and .def_52 A15))) (let ((.def_54 (not .def_53))) (let ((.def_55 (or .def_54 .def_51))) (let ((.def_56 (= .def_55 .def_48))) (let ((.def_57 (or .def_56 .def_41))) (let ((.def_58 (not .def_57))) (let ((.def_59 (and .def_58 .def_28))) (let ((.def_60 (not A11))) (let ((.def_61 (and .def_60 A10))) (let ((.def_62 (not .def_61))) (let ((.def_63 (not A1))) (let ((.def_64 (or .def_63 .def_6))) (let ((.def_65 (not .def_64))) (let ((.def_66 (= .def_65 .def_62))) (let ((.def_67 (not .def_66))) (let ((.def_68 (or A22 .def_42))) (let ((.def_69 (not .def_68))) (let ((.def_70 (not A15))) (let ((.def_71 (or .def_70 A23))) (let ((.def_72 (or .def_71 .def_69))) (let ((.def_73 (and .def_72 .def_67))) (let ((.def_74 (and A12 A0))) (let ((.def_75 (or A8 A1))) (let ((.def_76 (not .def_75))) (let ((.def_77 (and .def_76 .def_74))) (let ((.def_78 (not .def_77))) (let ((.def_79 (not A7))) (let ((.def_80 (and .def_79 A9))) (let ((.def_81 (not .def_80))) (let ((.def_82 (and A10 .def_52))) (let ((.def_83 (not .def_82))) (let ((.def_84 (or .def_83 .def_81))) (let ((.def_85 (and .def_84 .def_78))) (let ((.def_86 (and .def_85 .def_73))) (let ((.def_87 (not .def_86))) (let ((.def_88 (and A10 A22))) (let ((.def_89 (not .def_88))) (let ((.def_90 (and .def_9 A15))) (let ((.def_91 (not .def_90))) (let ((.def_92 (or .def_91 .def_89))) (let ((.def_93 (not .def_92))) (let ((.def_94 (not A9))) (let ((.def_95 (and .def_94 A4))) (let ((.def_96 (and A15 A4))) (let ((.def_97 (= .def_96 .def_95))) (let ((.def_98 (not .def_97))) (let ((.def_99 (or .def_98 .def_93))) (let ((.def_100 (not .def_99))) (let ((.def_101 (or .def_52 .def_29))) (let ((.def_102 (not A21))) (let ((.def_103 (and A11 .def_102))) (let ((.def_104 (not .def_103))) (let ((.def_105 (and .def_104 .def_101))) (let ((.def_106 (not A3))) (let ((.def_107 (= A4 .def_106))) (let ((.def_108 (or A6 .def_94))) (let ((.def_109 (and .def_108 .def_107))) (let ((.def_110 (not .def_109))) (let ((.def_111 (and .def_110 .def_105))) (let ((.def_112 (and .def_111 .def_100))) (let ((.def_113 (or .def_112 .def_87))) (let ((.def_114 (or .def_113 .def_59))) .def_114))))))))))))))))))))))))))))))))))))))))))))))))))))))))))))))))))))))))))))))))))))))))))))))))))))))))))))))))))))
(check-sat)
